
Gurobi 7.5.1 (win64, Python) logging started 10/08/17 16:42:01

Academic license - for non-commercial use only
Read LP format model from file model1.lp
Reading time = 0.11 seconds
: 100 rows, 1001 columns, 100100 nonzeros
Optimize a model with 100 rows, 1001 columns and 100100 nonzeros
Coefficient statistics:
  Matrix range     [6e-02, 3e+01]
  Objective range  [1e-01, 3e+01]
  Bounds range     [1e+00, 1e+00]
  RHS range        [0e+00, 0e+00]

Concurrent LP optimizer: dual simplex and barrier
Showing barrier log only...

Presolve time: 0.03s
Presolved: 100 rows, 1001 columns, 100100 nonzeros

Ordering time: 0.00s

Barrier statistics:
 AA' NZ     : 4.950e+03
 Factor NZ  : 5.050e+03
 Factor Ops : 3.384e+05 (less than 1 second per iteration)
 Threads    : 1

                  Objective                Residual
Iter       Primal          Dual         Primal    Dual     Compl     Time
   0   7.33358834e+03 -1.86040752e+04  3.20e-01 0.00e+00  1.33e+01     0s
   1   5.81186634e+00 -1.87292656e+03  0.00e+00 3.55e-14  8.94e-01     0s
   2  -8.69373432e+01 -3.44307719e+02  0.00e+00 2.81e-14  1.22e-01     0s
   3  -1.83306841e+02 -2.24363016e+02  0.00e+00 2.74e-14  1.95e-02     0s
   4  -2.02152326e+02 -2.11918318e+02  0.00e+00 2.62e-14  4.65e-03     0s
   5  -2.06396546e+02 -2.09327389e+02  0.00e+00 3.14e-14  1.39e-03     0s
   6  -2.07526476e+02 -2.08628816e+02  0.00e+00 2.64e-14  5.24e-04     0s
   7  -2.08045769e+02 -2.08304214e+02  0.00e+00 2.99e-14  1.23e-04     0s
   8  -2.08166430e+02 -2.08201137e+02  0.00e+00 2.75e-14  1.65e-05     0s
   9  -2.08183799e+02 -2.08192661e+02  0.00e+00 2.75e-14  4.22e-06     0s
  10  -2.08189889e+02 -2.08191444e+02  0.00e+00 3.47e-14  7.40e-07     0s
  11  -2.08190994e+02 -2.08191079e+02  0.00e+00 3.02e-14  4.03e-08     0s
  12  -2.08191021e+02 -2.08191021e+02  1.34e-11 2.86e-14  4.93e-12     0s

Barrier solved model in 12 iterations and 0.13 seconds
Optimal objective -2.08191021e+02

Crossover log...

       0 DPushes remaining with DInf 0.0000000e+00                 0s

       0 PPushes remaining with PInf 0.0000000e+00                 0s

  Push phase complete: Pinf 0.0000000e+00, Dinf 4.7820862e-13      0s

Iteration    Objective       Primal Inf.    Dual Inf.      Time
       3   -2.0819102e+02   0.000000e+00   0.000000e+00      0s
       3   -2.0819102e+02   0.000000e+00   0.000000e+00      0s

Solved with barrier
Solved in 3 iterations and 0.14 seconds
Optimal objective -2.081910212e+02

Gurobi 7.5.1 (win64, Python) logging started 10/08/17 16:56:29

Academic license - for non-commercial use only
Read LP format model from file model1.lp
Reading time = 0.09 seconds
: 100 rows, 1001 columns, 100100 nonzeros
Optimize a model with 100 rows, 1001 columns and 100100 nonzeros
Coefficient statistics:
  Matrix range     [6e-02, 3e+01]
  Objective range  [1e-01, 3e+01]
  Bounds range     [1e+00, 1e+00]
  RHS range        [0e+00, 0e+00]

Concurrent LP optimizer: dual simplex and barrier
Showing barrier log only...

Presolve time: 0.03s
Presolved: 100 rows, 1001 columns, 100100 nonzeros

Ordering time: 0.00s

Barrier statistics:
 AA' NZ     : 4.950e+03
 Factor NZ  : 5.050e+03
 Factor Ops : 3.384e+05 (less than 1 second per iteration)
 Threads    : 1

                  Objective                Residual
Iter       Primal          Dual         Primal    Dual     Compl     Time
   0   7.33358834e+03 -1.86040752e+04  3.20e-01 0.00e+00  1.33e+01     0s
   1   5.81186634e+00 -1.87292656e+03  0.00e+00 3.55e-14  8.94e-01     0s
   2  -8.69373432e+01 -3.44307719e+02  0.00e+00 2.81e-14  1.22e-01     0s
   3  -1.83306841e+02 -2.24363016e+02  0.00e+00 2.74e-14  1.95e-02     0s
   4  -2.02152326e+02 -2.11918318e+02  0.00e+00 2.62e-14  4.65e-03     0s
   5  -2.06396546e+02 -2.09327389e+02  0.00e+00 3.14e-14  1.39e-03     0s
   6  -2.07526476e+02 -2.08628816e+02  0.00e+00 2.64e-14  5.24e-04     0s
   7  -2.08045769e+02 -2.08304214e+02  0.00e+00 2.99e-14  1.23e-04     0s
   8  -2.08166430e+02 -2.08201137e+02  0.00e+00 2.75e-14  1.65e-05     0s
   9  -2.08183799e+02 -2.08192661e+02  0.00e+00 2.75e-14  4.22e-06     0s
  10  -2.08189889e+02 -2.08191444e+02  0.00e+00 3.47e-14  7.40e-07     0s
  11  -2.08190994e+02 -2.08191079e+02  0.00e+00 3.02e-14  4.03e-08     0s
  12  -2.08191021e+02 -2.08191021e+02  1.34e-11 2.86e-14  4.93e-12     0s

Barrier solved model in 12 iterations and 0.11 seconds
Optimal objective -2.08191021e+02

Crossover log...

       0 DPushes remaining with DInf 0.0000000e+00                 0s

       0 PPushes remaining with PInf 0.0000000e+00                 0s

  Push phase complete: Pinf 0.0000000e+00, Dinf 4.7820862e-13      0s

Iteration    Objective       Primal Inf.    Dual Inf.      Time
       3   -2.0819102e+02   0.000000e+00   0.000000e+00      0s
       3   -2.0819102e+02   0.000000e+00   0.000000e+00      0s

Solved with barrier
Solved in 3 iterations and 0.13 seconds
Optimal objective -2.081910212e+02

Gurobi 7.5.1 (win64, Python) logging started 10/08/17 16:58:28

Academic license - for non-commercial use only
Read LP format model from file model1.lp
Reading time = 0.11 seconds
: 100 rows, 1001 columns, 100100 nonzeros
Optimize a model with 100 rows, 1001 columns and 100100 nonzeros
Coefficient statistics:
  Matrix range     [6e-02, 3e+01]
  Objective range  [1e-01, 3e+01]
  Bounds range     [1e+00, 1e+00]
  RHS range        [0e+00, 0e+00]

Concurrent LP optimizer: dual simplex and barrier
Showing barrier log only...

Presolve time: 0.03s
Presolved: 100 rows, 1001 columns, 100100 nonzeros

Ordering time: 0.00s

Barrier statistics:
 AA' NZ     : 4.950e+03
 Factor NZ  : 5.050e+03
 Factor Ops : 3.384e+05 (less than 1 second per iteration)
 Threads    : 1

                  Objective                Residual
Iter       Primal          Dual         Primal    Dual     Compl     Time
   0   7.33358834e+03 -1.86040752e+04  3.20e-01 0.00e+00  1.33e+01     0s
   1   5.81186634e+00 -1.87292656e+03  0.00e+00 3.55e-14  8.94e-01     0s
   2  -8.69373432e+01 -3.44307719e+02  0.00e+00 2.81e-14  1.22e-01     0s
   3  -1.83306841e+02 -2.24363016e+02  0.00e+00 2.74e-14  1.95e-02     0s
   4  -2.02152326e+02 -2.11918318e+02  0.00e+00 2.62e-14  4.65e-03     0s
   5  -2.06396546e+02 -2.09327389e+02  0.00e+00 3.14e-14  1.39e-03     0s
   6  -2.07526476e+02 -2.08628816e+02  0.00e+00 2.64e-14  5.24e-04     0s
   7  -2.08045769e+02 -2.08304214e+02  0.00e+00 2.99e-14  1.23e-04     0s
   8  -2.08166430e+02 -2.08201137e+02  0.00e+00 2.75e-14  1.65e-05     0s
   9  -2.08183799e+02 -2.08192661e+02  0.00e+00 2.75e-14  4.22e-06     0s
  10  -2.08189889e+02 -2.08191444e+02  0.00e+00 3.47e-14  7.40e-07     0s
  11  -2.08190994e+02 -2.08191079e+02  0.00e+00 3.02e-14  4.03e-08     0s
  12  -2.08191021e+02 -2.08191021e+02  1.34e-11 2.86e-14  4.93e-12     0s

Barrier solved model in 12 iterations and 0.12 seconds
Optimal objective -2.08191021e+02

Crossover log...

       0 DPushes remaining with DInf 0.0000000e+00                 0s

       0 PPushes remaining with PInf 0.0000000e+00                 0s

  Push phase complete: Pinf 0.0000000e+00, Dinf 4.7820862e-13      0s

Iteration    Objective       Primal Inf.    Dual Inf.      Time
       3   -2.0819102e+02   0.000000e+00   0.000000e+00      0s
       3   -2.0819102e+02   0.000000e+00   0.000000e+00      0s

Solved with barrier
Solved in 3 iterations and 0.14 seconds
Optimal objective -2.081910212e+02

Gurobi 7.5.1 (win64, Python) logging started 10/08/17 17:56:20

Academic license - for non-commercial use only
Read LP format model from file model.lp
Reading time = 0.09 seconds
: 100 rows, 1001 columns, 100100 nonzeros
Optimize a model with 100 rows, 1001 columns and 100100 nonzeros
Coefficient statistics:
  Matrix range     [6e-02, 3e+01]
  Objective range  [1e-01, 3e+01]
  Bounds range     [1e+00, 1e+00]
  RHS range        [0e+00, 0e+00]

Concurrent LP optimizer: dual simplex and barrier
Showing barrier log only...

Presolve time: 0.03s
Presolved: 100 rows, 1001 columns, 100100 nonzeros

Ordering time: 0.00s

Barrier statistics:
 AA' NZ     : 4.950e+03
 Factor NZ  : 5.050e+03
 Factor Ops : 3.384e+05 (less than 1 second per iteration)
 Threads    : 1

                  Objective                Residual
Iter       Primal          Dual         Primal    Dual     Compl     Time
   0   7.33358834e+03 -1.86040752e+04  3.20e-01 0.00e+00  1.33e+01     0s
   1   5.81186634e+00 -1.87292656e+03  0.00e+00 3.55e-14  8.94e-01     0s
   2  -8.69373432e+01 -3.44307719e+02  0.00e+00 2.81e-14  1.22e-01     0s
   3  -1.83306841e+02 -2.24363016e+02  0.00e+00 2.74e-14  1.95e-02     0s
   4  -2.02152326e+02 -2.11918318e+02  0.00e+00 2.62e-14  4.65e-03     0s
   5  -2.06396546e+02 -2.09327389e+02  0.00e+00 3.14e-14  1.39e-03     0s
   6  -2.07526476e+02 -2.08628816e+02  0.00e+00 2.64e-14  5.24e-04     0s
   7  -2.08045769e+02 -2.08304214e+02  0.00e+00 2.99e-14  1.23e-04     0s
   8  -2.08166430e+02 -2.08201137e+02  0.00e+00 2.75e-14  1.65e-05     0s
   9  -2.08183799e+02 -2.08192661e+02  0.00e+00 2.75e-14  4.22e-06     0s
  10  -2.08189889e+02 -2.08191444e+02  0.00e+00 3.47e-14  7.40e-07     0s
  11  -2.08190994e+02 -2.08191079e+02  0.00e+00 3.02e-14  4.03e-08     0s
  12  -2.08191021e+02 -2.08191021e+02  1.34e-11 2.86e-14  4.93e-12     0s

Barrier solved model in 12 iterations and 0.11 seconds
Optimal objective -2.08191021e+02

Crossover log...

       0 DPushes remaining with DInf 0.0000000e+00                 0s

       0 PPushes remaining with PInf 0.0000000e+00                 0s

  Push phase complete: Pinf 0.0000000e+00, Dinf 4.7820862e-13      0s

Iteration    Objective       Primal Inf.    Dual Inf.      Time
       3   -2.0819102e+02   0.000000e+00   0.000000e+00      0s
       3   -2.0819102e+02   0.000000e+00   0.000000e+00      0s

Solved with barrier
Solved in 3 iterations and 0.14 seconds
Optimal objective -2.081910212e+02
